%mem=16GB
%nprocshared=16
%nosave
# wb97xd/cc-pvdz td=nstates=10 formcheck

SynLadder

0 1
 C                  0.78949000   -0.77653400    0.66040800
 H                  1.25537600   -1.35159300    1.46771000
 C                  0.78935400    0.77715900    0.65980400
 H                  1.25523700    1.35303800    1.46651600
 C                 -0.78927300    0.77686300    0.65995900
 H                 -1.25521300    1.35221200    1.46701700
 C                 -0.78897800   -0.77669700    0.66029100
 H                 -1.25493400   -1.35179400    1.46754900
 C                  1.48207700    0.67213200   -0.67154900
 H                  1.79830100    1.41814000   -1.40139500
 C                  1.48215400   -0.67251300   -0.67108300
 H                  1.79799400   -1.41900400   -1.40062000
 C                 -1.48243100    0.67208900   -0.67118300
 H                 -1.79914500    1.41809300   -1.40084000
 C                 -1.48220200   -0.67253100   -0.67092600
 H                 -1.79876000   -1.41890500   -1.40026200

