%mem=8GB
%nprocshared=16
%chk=dimer-1Dscan.chk
# opt=(modredundant,calcfc) freq=noraman 6-31g(d,p) pbe1pbe

Dimer

0 1
 C                 -3.37876700   -2.46242100   -0.69492400
 C                 -2.29723100   -1.92336800   -1.39048900
 C                 -1.21882800   -1.38184800   -0.70110900
 C                 -1.21882900   -1.38175800    0.70128500
 C                 -2.29723200   -1.92319000    1.39073400
 C                 -3.37876700   -2.46233200    0.69523800
 C                  0.00000000   -0.80307700   -1.38483000
 C                  0.00000000   -0.80290100    1.38493200
 C                  1.21882900   -1.38175800    0.70128500
 C                  1.21882800   -1.38184800   -0.70110900
 C                  2.29723100   -1.92336800   -1.39048900
 H                  2.29223900   -1.92897100   -2.47802200
 C                  3.37876700   -2.46242100   -0.69492400
 C                  3.37876700   -2.46233200    0.69523800
 C                  2.29723200   -1.92319000    1.39073400
 H                  0.00000000   -1.11453900   -2.43409900
 H                 -4.21623400   -2.88736500   -1.24070500
 H                 -2.29223900   -1.92897100   -2.47802200
 H                 -2.29223900   -1.92865300    2.47826800
 H                 -4.21623500   -2.88720600    1.24107400
 H                  0.00000000   -1.11422900    2.43424200
 H                  4.21623400   -2.88736500   -1.24070500
 H                  4.21623500   -2.88720600    1.24107400
 H                  2.29223900   -1.92865300    2.47826800
 C                  3.37876700    2.46233200   -0.69523800
 C                  2.29723200    1.92319000   -1.39073400
 C                  1.21882900    1.38175800   -0.70128500
 C                  1.21882800    1.38184800    0.70110900
 C                  2.29723100    1.92336800    1.39048900
 C                  3.37876700    2.46242100    0.69492400
 C                  0.00000000    0.80290100   -1.38493200
 C                  0.00000000    0.80307700    1.38483000
 C                 -1.21882800    1.38184800    0.70110900
 C                 -1.21882900    1.38175800   -0.70128500
 C                 -2.29723200    1.92319000   -1.39073400
 H                 -2.29223900    1.92865300   -2.47826800
 C                 -3.37876700    2.46233200   -0.69523800
 C                 -3.37876700    2.46242100    0.69492400
 C                 -2.29723100    1.92336800    1.39048900
 H                  0.00000000    1.11422900   -2.43424200
 H                  4.21623500    2.88720600   -1.24107400
 H                  2.29223900    1.92865300   -2.47826800
 H                  2.29223900    1.92897100    2.47802200
 H                  4.21623400    2.88736500    1.24070500
 H                  0.00000000    1.11453900    2.43409900
 H                 -4.21623500    2.88720600   -1.24107400
 H                 -4.21623400    2.88736500    1.24070500
 H                 -2.29223900    1.92897100    2.47802200

B 8 32 S 20 0.05

